100 100 100
50
85 1 100
91 67 43
48 46 24
69 20 85
98 37 77
79 38 88
8 98 93
96 35 83
67 25 92
98 45 100
86 28 67
76 27 97
78 79 43
82 30 89
93 20 84
71 16 68
73 26 94
78 44 74
46 31 34
45 45 32
74 16 73
4 91 73
76 35 86
77 50 70
70 93 56
96 69 41
100 41 87
23 84 80
85 29 83
27 74 96
92 73 13
97 31 69
74 33 96
87 88 28
41 77 69
76 74 54
16 74 81
91 41 98
67 2 97
68 100 20
88 34 100
16 81 97
88 8 68
76 5 72
94 34 78
97 17 76
90 38 93
33 66 91
93 33 68
1 84 70
